NAME : sample1
TYPE : TSP
DIMENSION : 20
EDGE_WEIGHT_TYPE : EUC_2D
NODE_COORD_SECTION
	0	18,56	-0,58
	1	10	14,78
	2	16,69	-17,56
	3	0,59	7,22
	4	7,57	18,85
	5	-14,94	-0,12
	6	-7,49	19,11
	7	11,85	17,61
	8	-8,05	7,43
	9	-17,38	6,86
	10	16,3	7,81
	11	-17,2	3,56
	12	-18,35	7,75
	13	3,81	-3,24
	14	10,86	15,27
	15	3,4	-14,1
	16	12,99	-19,29
	17	-11,37	4,81
	18	-10,11	-18,64
	19	2,71	-16,85
EOF